(declare-fun x! () Int)
(assert (= x! 0))
(declare-fun y! () Int)
(assert (= y! -1))
(declare-fun max2 ( Int  Int ) Int)
(declare-fun resultF () Int)
(assert (= resultF (max2 x! y!)))
(assert (not(or (not (>= (max2 x! y! ) x! )) (not (>= (max2 x! y! ) y! )) (not (or (= x! (max2 x! y! ) ) (= y! (max2 x! y! ) ) )) )))
(check-sat)
(get-model)